
Gurobi 6.0.4 (mac64) logging started Thu Jun 25 08:05:16 2015


Gurobi 6.0.4 (mac64) logging started Thu Jun 25 08:05:59 2015


Gurobi 6.0.4 (mac64) logging started Thu Jun 25 08:10:08 2015


Gurobi 6.0.4 (mac64) logging started Thu Jun 25 08:12:54 2015


Gurobi 6.0.4 (mac64) logging started Thu Jun 25 08:14:13 2015


Gurobi 6.0.4 (mac64) logging started Thu Jun 25 08:16:48 2015


Gurobi 6.0.4 (mac64) logging started Thu Jun 25 08:21:45 2015


Gurobi 6.0.4 (mac64) logging started Thu Jun 25 08:22:23 2015


Gurobi 6.0.4 (mac64) logging started Thu Jun 25 08:27:01 2015


Gurobi 6.0.4 (mac64) logging started Thu Jun 25 08:27:55 2015


Gurobi 6.0.4 (mac64) logging started Thu Jun 25 08:28:24 2015


Gurobi 6.0.4 (mac64) logging started Thu Jun 25 08:42:16 2015

